5 5
1 80 0 19 3 89 2 30 4 6
0 27 3 15 2 31 4 44 1 86
3 76 4 10 1 21 0 47 2 55
4 95 1 36 3 74 2 58 0 19
4 87 3 64 0 10 2 49 1 54
-1
0 3 5
0 2 3 4 5
0 3 4 5
0 2 5
0 2 3 5
-2
267 353
49 82 179 221
156 168 237
161 354
239 237 264

395 7
5 1 13 22 19
0 12 16 9 24
7 14 23 3 18
10 6 21 2 17
20 11 15 8 4
